NAME : AB
COMMENT : (Augerat et al, No of trucks: 10, Optimal value: 1763)
TYPE : CVRP
DIMENSION : 5
EDGE_WEIGHT_TYPE : EUC_2D 
CAPACITY : 10
NODE_COORD_SECTION 
1 37 52
2 49 49
3 52 64
4 20 26
5 40 30
DEMAND_SECTION 
1 0 
2 100 
3 100 
4 20 
5 10 
DEPOT_SECTION 
 1  
 -1  
EOF 
